c "87498.clq"
p edge 200 784
e 1 5
e 1 6
e 1 7
e 1 10
e 1 11
e 1 27
e 1 34
e 1 39
e 1 47
e 1 63
e 1 64
e 1 66
e 1 75
e 1 88
e 1 92
e 1 94
e 1 104
e 1 111
e 1 112
e 1 115
e 1 117
e 1 149
e 1 153
e 1 190
e 2 5
e 2 7
e 2 9
e 2 16
e 2 18
e 2 23
e 2 25
e 2 28
e 2 34
e 2 41
e 2 43
e 2 73
e 2 91
e 2 125
e 2 178
e 2 184
e 3 5
e 3 6
e 3 8
e 3 10
e 3 11
e 3 13
e 3 26
e 3 27
e 3 30
e 3 33
e 3 35
e 3 44
e 3 46
e 3 50
e 3 64
e 3 66
e 3 73
e 3 98
e 3 127
e 3 136
e 3 142
e 3 182
e 3 186
e 3 199
e 4 5
e 4 6
e 4 7
e 4 8
e 4 9
e 4 10
e 4 11
e 4 12
e 4 14
e 4 15
e 4 16
e 4 19
e 4 22
e 4 24
e 4 26
e 4 30
e 4 37
e 4 38
e 4 50
e 4 52
e 4 60
e 4 61
e 4 63
e 4 79
e 4 82
e 4 87
e 4 91
e 4 103
e 4 122
e 4 123
e 4 139
e 4 141
e 4 142
e 4 150
e 4 155
e 4 162
e 4 164
e 4 178
e 4 180
e 4 183
e 4 185
e 4 194
e 5 6
e 5 7
e 5 8
e 5 9
e 5 13
e 5 14
e 5 15
e 5 17
e 5 18
e 5 21
e 5 22
e 5 26
e 5 28
e 5 31
e 5 34
e 5 36
e 5 41
e 5 47
e 5 49
e 5 53
e 5 55
e 5 56
e 5 58
e 5 65
e 5 68
e 5 70
e 5 72
e 5 83
e 5 91
e 5 92
e 5 96
e 5 99
e 5 100
e 5 104
e 5 106
e 5 107
e 5 109
e 5 112
e 5 116
e 5 121
e 5 123
e 5 125
e 5 128
e 5 132
e 5 135
e 5 147
e 5 149
e 5 157
e 5 165
e 5 166
e 5 181
e 5 189
e 5 194
e 6 8
e 6 9
e 6 13
e 6 29
e 6 41
e 6 43
e 6 48
e 6 49
e 6 94
e 6 95
e 6 99
e 6 106
e 6 115
e 6 124
e 6 162
e 6 165
e 6 179
e 6 184
e 6 199
e 7 11
e 7 14
e 7 16
e 7 17
e 7 18
e 7 19
e 7 21
e 7 24
e 7 33
e 7 36
e 7 37
e 7 44
e 7 47
e 7 55
e 7 58
e 7 59
e 7 62
e 7 69
e 7 72
e 7 87
e 7 90
e 7 92
e 7 95
e 7 97
e 7 114
e 7 122
e 7 123
e 7 137
e 7 145
e 7 149
e 7 161
e 7 165
e 7 170
e 7 174
e 7 191
e 7 192
e 7 200
e 8 10
e 8 12
e 8 16
e 8 20
e 8 24
e 8 28
e 8 38
e 8 49
e 8 71
e 8 111
e 8 114
e 8 120
e 8 132
e 9 13
e 9 15
e 9 17
e 9 19
e 9 21
e 9 23
e 9 25
e 9 31
e 9 32
e 9 34
e 9 39
e 9 53
e 9 88
e 9 103
e 9 107
e 9 113
e 9 134
e 9 137
e 9 140
e 9 148
e 9 173
e 10 12
e 10 20
e 10 33
e 10 40
e 10 62
e 10 68
e 10 74
e 10 80
e 10 85
e 10 95
e 10 101
e 10 130
e 10 141
e 10 143
e 10 146
e 10 158
e 10 161
e 10 186
e 11 12
e 11 25
e 11 32
e 11 40
e 11 48
e 11 99
e 11 119
e 11 120
e 11 132
e 11 158
e 11 169
e 11 194
e 12 14
e 12 17
e 12 19
e 12 35
e 12 43
e 12 45
e 12 46
e 12 61
e 12 80
e 12 81
e 12 129
e 12 132
e 12 142
e 12 154
e 12 156
e 12 175
e 12 187
e 12 189
e 13 15
e 13 21
e 13 23
e 13 40
e 13 45
e 13 51
e 13 59
e 13 65
e 13 100
e 13 169
e 13 175
e 14 28
e 14 68
e 14 72
e 14 86
e 14 93
e 14 157
e 14 168
e 14 199
e 15 22
e 15 23
e 15 35
e 15 50
e 15 84
e 15 89
e 15 125
e 15 135
e 15 138
e 15 195
e 16 18
e 16 20
e 16 24
e 16 25
e 16 31
e 16 36
e 16 39
e 16 41
e 16 46
e 16 51
e 16 53
e 16 59
e 16 77
e 16 78
e 16 79
e 16 86
e 16 89
e 16 90
e 16 126
e 16 129
e 16 139
e 16 140
e 16 155
e 16 156
e 16 163
e 16 192
e 17 39
e 17 44
e 17 70
e 17 124
e 17 135
e 17 153
e 17 181
e 17 190
e 18 22
e 18 43
e 19 20
e 19 29
e 19 35
e 19 37
e 19 38
e 19 42
e 19 55
e 19 67
e 19 74
e 19 77
e 19 93
e 19 94
e 19 105
e 19 108
e 19 139
e 19 149
e 19 153
e 19 190
e 20 27
e 20 36
e 20 45
e 20 67
e 20 116
e 20 122
e 20 128
e 20 172
e 20 181
e 21 55
e 21 71
e 21 86
e 21 98
e 21 133
e 21 134
e 21 146
e 21 163
e 21 193
e 22 31
e 22 32
e 22 38
e 22 40
e 22 54
e 22 56
e 22 61
e 22 65
e 22 70
e 22 80
e 22 88
e 22 116
e 22 118
e 22 128
e 22 140
e 22 141
e 22 174
e 22 179
e 22 187
e 23 29
e 23 30
e 23 32
e 23 63
e 23 64
e 23 69
e 23 73
e 23 75
e 23 150
e 23 154
e 23 180
e 24 26
e 24 27
e 24 33
e 24 48
e 24 54
e 24 60
e 24 127
e 24 137
e 24 143
e 24 147
e 24 178
e 25 30
e 25 67
e 25 78
e 25 102
e 25 105
e 25 173
e 26 82
e 26 112
e 26 117
e 26 145
e 26 147
e 26 159
e 26 167
e 26 169
e 26 197
e 27 29
e 27 87
e 27 90
e 28 47
e 28 49
e 28 97
e 28 162
e 28 172
e 28 177
e 29 50
e 29 58
e 29 101
e 29 110
e 29 129
e 29 144
e 29 197
e 30 42
e 30 58
e 30 102
e 30 170
e 30 173
e 31 42
e 31 45
e 31 60
e 31 61
e 31 66
e 31 91
e 31 119
e 31 143
e 31 154
e 31 155
e 31 190
e 32 52
e 32 56
e 32 57
e 32 106
e 32 152
e 32 158
e 32 160
e 32 175
e 32 179
e 33 44
e 33 51
e 33 67
e 33 76
e 33 108
e 33 115
e 33 133
e 33 151
e 34 62
e 34 84
e 34 115
e 34 119
e 34 124
e 34 153
e 34 182
e 35 89
e 35 179
e 35 191
e 35 196
e 36 37
e 36 46
e 36 52
e 36 122
e 36 126
e 36 138
e 36 161
e 36 166
e 36 176
e 36 188
e 36 198
e 37 85
e 37 128
e 37 138
e 38 57
e 38 71
e 38 84
e 38 95
e 39 42
e 39 48
e 39 54
e 39 56
e 39 60
e 39 78
e 39 93
e 39 96
e 39 100
e 39 101
e 39 118
e 39 144
e 39 148
e 39 159
e 39 167
e 39 188
e 40 52
e 40 53
e 40 69
e 40 77
e 40 81
e 40 83
e 40 96
e 40 109
e 40 162
e 40 183
e 40 195
e 41 68
e 41 83
e 41 147
e 41 155
e 41 176
e 42 51
e 42 73
e 42 75
e 42 80
e 42 82
e 42 166
e 42 186
e 43 57
e 43 148
e 43 174
e 44 97
e 44 114
e 44 130
e 44 198
e 45 63
e 45 69
e 45 70
e 45 107
e 45 131
e 45 134
e 45 152
e 45 177
e 45 183
e 46 131
e 46 176
e 47 157
e 48 62
e 48 85
e 48 87
e 48 90
e 48 184
e 49 54
e 49 65
e 49 79
e 49 82
e 49 92
e 49 101
e 49 117
e 49 129
e 49 133
e 49 161
e 49 195
e 50 74
e 50 113
e 50 199
e 51 74
e 51 172
e 52 57
e 52 59
e 52 116
e 52 138
e 52 158
e 53 81
e 53 119
e 54 118
e 55 76
e 55 108
e 55 117
e 55 131
e 55 163
e 55 171
e 55 197
e 56 76
e 56 142
e 56 143
e 56 165
e 56 171
e 57 75
e 58 77
e 59 66
e 59 96
e 59 126
e 60 71
e 60 88
e 60 196
e 60 198
e 61 79
e 61 84
e 61 112
e 61 140
e 62 81
e 63 64
e 63 110
e 63 175
e 64 141
e 65 78
e 65 121
e 65 145
e 66 98
e 67 139
e 68 183
e 69 181
e 70 72
e 70 120
e 71 93
e 71 167
e 73 89
e 73 103
e 73 185
e 74 76
e 74 85
e 74 94
e 74 144
e 74 156
e 75 83
e 75 164
e 77 103
e 77 170
e 77 174
e 78 102
e 78 187
e 79 189
e 80 86
e 80 113
e 80 121
e 80 185
e 82 107
e 82 150
e 82 173
e 83 97
e 83 109
e 83 124
e 83 163
e 86 126
e 87 136
e 87 151
e 87 160
e 88 109
e 88 134
e 88 136
e 88 144
e 88 200
e 89 105
e 90 125
e 90 151
e 90 195
e 91 98
e 91 99
e 92 100
e 92 104
e 92 182
e 93 127
e 93 151
e 93 168
e 94 105
e 94 193
e 95 123
e 95 178
e 95 194
e 97 104
e 97 133
e 98 106
e 98 111
e 98 156
e 99 102
e 99 154
e 101 121
e 102 120
e 103 110
e 103 152
e 103 186
e 103 188
e 104 108
e 104 118
e 104 160
e 104 172
e 106 111
e 107 110
e 108 113
e 109 130
e 110 160
e 111 135
e 111 191
e 112 164
e 112 166
e 113 114
e 114 127
e 114 164
e 116 130
e 119 159
e 120 136
e 120 192
e 122 131
e 123 167
e 123 184
e 126 187
e 126 196
e 128 168
e 128 193
e 130 146
e 131 137
e 132 148
e 132 157
e 132 196
e 133 145
e 133 146
e 138 168
e 138 169
e 138 171
e 142 171
e 144 193
e 148 185
e 148 197
e 149 150
e 149 152
e 149 170
e 152 176
e 152 180
e 156 159
e 158 192
e 159 182
e 161 198
e 164 191
e 165 188
e 166 177
e 167 180
e 176 177
e 181 200
e 183 200
e 186 189
